
Gurobi 10.0.1 (linux64) logging started Sun Nov 26 15:37:29 2023

Set parameter LogFile to value "ArtificialInstance/ExperimentV2/S2T4K3/BaSp/gurobi1.txt"
Gurobi Optimizer version 10.0.1 build v10.0.1rc0 (linux64)

CPU model: AMD EPYC 7H12 64-Core Processor, instruction set [SSE2|AVX|AVX2]
Thread count: 128 physical cores, 128 logical processors, using up to 32 threads

Academic license 656792 - for non-commercial use only - registered to b.___@student.vu.nl
Optimize a model with 2995 rows, 4560 columns and 15440 nonzeros
Model fingerprint: 0x74ae76df
Variable types: 0 continuous, 4560 integer (4560 binary)
Coefficient statistics:
  Matrix range     [1e+00, 1e+00]
  Objective range  [2e+00, 2e+01]
  Bounds range     [1e+00, 1e+00]
  RHS range        [1e+00, 1e+00]
Found heuristic solution: objective 641.0328958
Presolve time: 0.02s
Presolved: 2995 rows, 4560 columns, 15440 nonzeros
Variable types: 0 continuous, 4560 integer (4560 binary)

Root relaxation: objective 4.720151e+01, 2279 iterations, 0.06 seconds (0.05 work units)

    Nodes    |    Current Node    |     Objective Bounds      |     Work
 Expl Unexpl |  Obj  Depth IntInf | Incumbent    BestBd   Gap | It/Node Time

     0     0   47.20151    0  600  641.03290   47.20151  92.6%     -    0s
H    0     0                     288.6745263   47.20151  83.6%     -    0s
H    0     0                     109.9985706   47.20151  57.1%     -    0s
H    0     0                      89.0242950   54.05733  39.3%     -    0s
     0     0   54.05733    0  621   89.02429   54.05733  39.3%     -    0s
H    0     0                      85.9778873   54.05733  37.1%     -    0s
H    0     0                      79.9292411   58.23054  27.1%     -    0s
     0     0   58.23054    0  672   79.92924   58.23054  27.1%     -    0s
     0     0   58.23054    0  667   79.92924   58.23054  27.1%     -    0s
     0     0   59.81206    0  793   79.92924   59.81206  25.2%     -    0s
H    0     0                      70.1272453   59.81206  14.7%     -    0s
     0     0   59.82880    0  765   70.12725   59.82880  14.7%     -    0s
     0     0   59.82880    0  765   70.12725   59.82880  14.7%     -    0s
     0     0   60.81566    0  872   70.12725   60.81566  13.3%     -    0s
     0     0   60.81566    0  879   70.12725   60.81566  13.3%     -    0s
H    0     0                      70.1272423   61.35207  12.5%     -    0s
     0     0   61.35207    0  961   70.12724   61.35207  12.5%     -    0s
     0     0   61.35207    0  951   70.12724   61.35207  12.5%     -    0s
     0     0   62.11033    0  923   70.12724   62.11033  11.4%     -    1s
     0     0   62.18869    0  867   70.12724   62.18869  11.3%     -    1s
     0     0   62.19067    0  903   70.12724   62.19067  11.3%     -    1s
     0     0   62.86486    0  906   70.12724   62.86486  10.4%     -    1s
     0     0   62.91048    0  892   70.12724   62.91048  10.3%     -    1s
     0     0   62.91048    0  892   70.12724   62.91048  10.3%     -    1s
     0     0   62.91056    0  918   70.12724   62.91056  10.3%     -    1s
     0     0   63.60556    0  903   70.12724   63.60556  9.30%     -    1s
     0     0   63.63065    0  844   70.12724   63.63065  9.26%     -    1s
     0     0   63.63249    0  846   70.12724   63.63249  9.26%     -    1s
     0     0   64.06754    0  919   70.12724   64.06754  8.64%     -    1s
     0     0   64.26454    0  964   70.12724   64.26454  8.36%     -    1s
     0     0   64.26454    0  971   70.12724   64.26454  8.36%     -    1s
     0     0   64.52650    0  958   70.12724   64.52650  7.99%     -    1s
     0     0   64.52680    0  976   70.12724   64.52680  7.99%     -    1s
     0     0   65.60374    0  950   70.12724   65.60374  6.45%     -    2s
     0     0   65.60374    0  912   70.12724   65.60374  6.45%     -    2s
     0     0   65.60374    0  910   70.12724   65.60374  6.45%     -    2s
     0     0   65.60374    0  917   70.12724   65.60374  6.45%     -    2s
     0     0   66.21946    0  901   70.12724   66.21946  5.57%     -    2s
     0     0   66.21946    0  898   70.12724   66.21946  5.57%     -    2s
     0     0   69.04836    0  895   70.12724   69.04836  1.54%     -    2s
     0     0   69.04836    0  828   70.12724   69.04836  1.54%     -    2s
     0     0   69.04836    0  588   70.12724   69.04836  1.54%     -    2s
     0     0   69.04836    0  723   70.12724   69.04836  1.54%     -    2s
     0     0   69.04836    0  899   70.12724   69.04836  1.54%     -    3s
     0     0   69.04836    0  827   70.12724   69.04836  1.54%     -    3s
     0     0   69.04836    0  824   70.12724   69.04836  1.54%     -    3s
     0     0   69.04836    0  844   70.12724   69.04836  1.54%     -    3s
     0     0   69.04836    0  832   70.12724   69.04836  1.54%     -    3s
     0     0   69.04836    0  830   70.12724   69.04836  1.54%     -    3s
     0     0   69.04836    0  852   70.12724   69.04836  1.54%     -    3s
     0     0   69.04836    0  869   70.12724   69.04836  1.54%     -    3s
     0     0   69.04836    0  857   70.12724   69.04836  1.54%     -    3s
     0     0   69.04836    0  840   70.12724   69.04836  1.54%     -    3s
     0     0   69.04836    0  840   70.12724   69.04836  1.54%     -    3s
     0     2   69.04836    0  840   70.12724   69.04836  1.54%     -    4s

Cutting planes:
  Gomory: 11
  Zero half: 136
  RLT: 85

Explored 103 nodes (50109 simplex iterations) in 4.58 seconds (3.07 work units)
Thread count was 32 (of 128 available processors)

Solution count 8: 70.1272 70.1272 79.9292 ... 641.033

Optimal solution found (tolerance 1.00e-04)
Best objective 7.012724234793e+01, best bound 7.012724234793e+01, gap 0.0000%
